(set-logic QF_LIA)
(set-info :ran/ran2.smt2)
(set-info :smt-lib-version 2.0)
(declare-fun x1 () Int)
(declare-fun x2 () Int)
(declare-fun x3 () Int)
(declare-fun x4 () Int)
(assert (<= (+ (* 6 x1) (* (- 2) x2) (* (- 8) x3) (* 8 x4) ) 2007))
(assert (<= (+ (* (- 8) x1) (* (- 7) x2) (* 8 x3) (* (- 3) x4) ) 3383))
(assert (<= (+ (* (- 1) x1) (* 10 x2) (* 7 x3) (* (- 2) x4) ) (- 4574)))
(assert (<= (+ (* 6 x1) (* 5 x2) (* (- 10) x3) (* 1 x4) ) 5867))
(assert (<= (+ (* (- 1) x1) (* 0 x2) (* 9 x3) (* (- 5) x4) ) 4181))
(assert (<= (+ (* 8 x1) (* (- 3) x2) (* (- 8) x3) (* (- 8) x4) ) 4352))
(assert (<= (+ (* 1 x1) (* 9 x2) (* (- 1) x3) (* 1 x4) ) 4269))
(assert (<= (+ (* 5 x1) (* 2 x2) (* 7 x3) (* 0 x4) ) 6449))
(assert (<= (+ (* 1 x1) (* 0 x2) (* 0 x3) (* 0 x4) ) 8912))
(assert (<= (+ (* (- 1) x1) (* 0 x2) (* 0 x3) (* 0 x4) ) 8912))
(assert (<= (+ (* 0 x1) (* 1 x2) (* 0 x3) (* 0 x4) ) 8912))
(assert (<= (+ (* 0 x1) (* (- 1) x2) (* 0 x3) (* 0 x4) ) 8912))
(assert (<= (+ (* 0 x1) (* 0 x2) (* 1 x3) (* 0 x4) ) 8912))
(assert (<= (+ (* 0 x1) (* 0 x2) (* (- 1) x3) (* 0 x4) ) 8912))
(assert (<= (+ (* 0 x1) (* 0 x2) (* 0 x3) (* 1 x4) ) 8912))
(assert (<= (+ (* 0 x1) (* 0 x2) (* 0 x3) (* (- 1) x4) ) 8912))
